benchmarks/bfuzz0/2267025921105691344917502305641947216783.smt2
(set-logic QF_FP)
(declare-const x0 (_ FloatingPoint 11 53))
(declare-const x1 (_ FloatingPoint 11 53))
(declare-const x2 (_ FloatingPoint 11 53))
(declare-const x3 (_ FloatingPoint 11 53))
(declare-const x4 (_ FloatingPoint 11 53))
(declare-const x5 (_ FloatingPoint 11 53))
(declare-const x6 (_ FloatingPoint 11 53))
(declare-const x7 (_ FloatingPoint 11 53))
(declare-const x8 (_ FloatingPoint 11 53))
(declare-const x9 (_ FloatingPoint 11 53))
(declare-const x10 (_ FloatingPoint 11 53))
(declare-const x11 (_ FloatingPoint 11 53))
(declare-const x12 (_ FloatingPoint 11 53))
(declare-const x13 (_ FloatingPoint 11 53))
(declare-const x14 (_ FloatingPoint 11 53))
(declare-const x15 (_ FloatingPoint 11 53))
(declare-const x16 (_ FloatingPoint 11 53))
(declare-const x17 (_ FloatingPoint 11 53))
(declare-const x18 (_ FloatingPoint 11 53))
(assert (fp.gt (fp.neg x18) (fp.add RNE x15 x13)))
(assert (fp.eq (fp.mul RNE x12 x3) (fp.sub RNE x16 x2)))
(assert (fp.leq (fp.neg x4) (fp.neg x9)))
(assert (fp.leq (fp.neg x5) (fp.mul RNE x15 x13)))
(assert (fp.gt (fp.neg x17) (fp.neg x8)))
(assert (fp.eq (fp.neg x3) (fp.mul RNE x1 x18)))
(assert (fp.leq (fp.add RNE x6 x4) (fp.div RNE x8 x9)))
(assert (fp.eq (fp.neg x3) (fp.sub RNE x5 x1)))
(assert (fp.geq (fp.sub RNE x14 x16) (fp.add RNE x12 x5)))
(assert (fp.geq (fp.sub RNE x12 x6) (fp.neg x13)))
(assert (fp.geq (fp.neg x13) (fp.div RNE x0 x12)))
(assert (fp.eq (fp.div RNE x3 x15) (fp.neg x9)))
(assert (fp.geq (fp.div RNE x14 x17) (fp.add RNE x12 x7)))
(assert (fp.lt (fp.sub RNE x14 x5) (fp.sub RNE x5 x9)))
(assert (fp.lt (fp.neg x12) (fp.mul RNE x10 x9)))
(check-sat)
