db/data/2267025921105691344917502305641947216783.z3.out
-------------------
2502.169781973
